NAME : rnd34_50.tsp
TYPE : TSP
DIMENSION : 50
EDGE_WEIGHT_TYPE : EUC_2D
NODE_COORD_SECTION
1 888 303
2 957 856
3 702 981
4 780 395
5 70 20
6 243 452
7 300 559
8 395 435
9 783 740
10 649 749
11 783 999
12 147 870
13 867 646
14 335 793
15 121 457
16 83 631
17 706 293
18 711 920
19 434 780
20 696 809
21 922 804
22 42 374
23 374 445
24 65 660
25 58 666
26 613 434
27 379 354
28 88 337
29 234 551
30 170 212
31 224 765
32 770 639
33 541 418
34 620 116
35 420 653
36 748 234
37 719 228
38 427 182
39 558 974
40 998 187
41 327 233
42 932 764
43 758 781
44 207 340
45 815 265
46 45 271
47 820 76
48 612 635
49 129 89
50 100 516
